
Gurobi 12.0.2 (win64) logging started Fri Jun  6 10:10:40 2025

Set parameter LogFile to value "C:\Ioana\_uni\honours\slp\algorithm\Main_files\results\others\prox_tubules_new\Task_024_Sample005_irr_gurobi.log"
Gurobi Optimizer version 12.0.2 build v12.0.2rc0 (win64 - Windows 11.0 (26100.2))

CPU model: Intel(R) Core(TM) Ultra 5 125H, instruction set [SSE2|AVX|AVX2]
Thread count: 14 physical cores, 18 logical processors, using up to 18 threads

Non-default parameters:
TimeLimit  2200

Optimize a model with 47658 rows, 34803 columns and 147850 nonzeros
Model fingerprint: 0x6c596a10
Variable types: 17409 continuous, 17394 integer (17394 binary)
Coefficient statistics:
  Matrix range     [1e-04, 8e+04]
  Objective range  [5e-05, 3e+00]
  Bounds range     [1e+00, 1e+03]
  RHS range        [1e+00, 1e+00]
Presolve removed 31250 rows and 21844 columns
Presolve time: 0.31s
Presolved: 16408 rows, 12959 columns, 54591 nonzeros
Variable types: 6413 continuous, 6546 integer (6546 binary)
Found heuristic solution: objective 18.8934873

Root relaxation: objective 3.613507e-03, 1770 iterations, 0.15 seconds (0.23 work units)

    Nodes    |    Current Node    |     Objective Bounds      |     Work
 Expl Unexpl |  Obj  Depth IntInf | Incumbent    BestBd   Gap | It/Node Time

     0     0    0.00361    0   10   18.89349    0.00361   100%     -    0s
H    0     0                       1.8662620    0.00361   100%     -    0s
     0     0    0.95147    0    8    1.86626    0.95147  49.0%     -    0s
     0     0    0.95231    0    9    1.86626    0.95231  49.0%     -    0s
     0     0    1.78656    0   20    1.86626    1.78656  4.27%     -    1s
     0     0    1.83371    0   11    1.86626    1.83371  1.74%     -    1s
     0     0    1.83406    0   13    1.86626    1.83406  1.73%     -    1s
     0     0    1.83406    0   12    1.86626    1.83406  1.73%     -    1s
     0     0    1.85409    0   11    1.86626    1.85409  0.65%     -    1s
     0     0    1.85764    0   28    1.86626    1.85764  0.46%     -    1s

Cutting planes:
  Learned: 1
  Cover: 3
  Implied bound: 1
  Clique: 1
  Flow cover: 17
  Flow path: 1
  Network: 3
  Relax-and-lift: 4

Explored 1 nodes (3036 simplex iterations) in 1.31 seconds (1.40 work units)
Thread count was 18 (of 18 available processors)

Solution count 2: 1.86626 18.8935 

Optimal solution found (tolerance 1.00e-04)
Best objective 1.866261950564e+00, best bound 1.866261950564e+00, gap 0.0000%
